8
2 5 6 7 9 10 11 12
6
1 3 5 13 14 16
5
4 5 6 7 8
4
1 2 5 10
8
1 2 3 4 5 7 9 10
5
1 2 3 7 10
10
1 2 3 4 5 6 7 8 9 10
15
1 2 3 4 6 7 8 9 10 11 12 14 15 16 17
6
1 2 5 6 8 9
2
1 6
10
1 2 3 4 5 7 9 12 15 16
2
1 2
6
1 2 3 4 5 6
10
2 3 4 5 6 8 9 10 13 14
6
1 2 3 4 6 7
5
2 4 5 6 8
2
1 2
8
1 2 3 5 6 10 12 13
16
1 2 3 4 5 7 8 9 10 11 12 13 14 15 16 17
4
1 2 4 5
4
2 4 5 7
8
1 4 6 7 8 10 11 12
5
1 2 3 4 6
6
1 2 3 4 5 6
10
1 2 3 4 5 6 7 9 10 11
7
1 2 3 4 10 15 16
5
1 2 3 5 11
9
1 3 5 8 11 12 13 15 16
2
2 3
3
3 6 7
7
2 3 4 6 7 8 9
2
1 3
2
1 2
2
3 4
6
1 2 3 4 8 9
11
1 4 5 7 8 10 11 12 13 14 16
6
3 5 8 10 11 12
6
1 3 5 9 12 13
2
1 2
3
1 2 4
3
3 6 9
4
3 5 6 7
3
2 3 5
11
1 2 3 4 5 6 7 9 10 12 14
7
2 3 4 5 8 11 15
7
1 2 3 4 5 8 11
6
1 2 6 7 9 10
3
1 3 6
3
1 2 5
5
1 2 4 5 10
5
2 3 7 8 9
5
1 2 3 5 9
3
2 3 7
2
1 2
6
2 3 10 11 14 15
5
1 3 4 5 11
3
1 2 3
3
1 3 4
7
1 3 7 8 11 13 14
2
1 2
3
2 4 7
7
1 2 3 5 6 7 8
7
8 9 10 11 13 14 16
4
1 2 3 4
8
2 3 4 5 6 7 11 12
5
1 2 3 4 6
3
1 3 7
6
1 2 3 5 6 9
2
1 4
5
1 2 4 5 10
4
1 4 7 8
8
1 2 3 5 6 8 10 12
5
1 2 4 5 9
9
1 2 3 4 5 7 13 14 15
5
1 3 4 6 7
7
3 4 6 7 8 11 13
10
1 4 5 6 7 8 10 11 12 13
4
1 4 5 8
9
1 4 5 6 7 9 11 13 14
2
1 2
5
1 2 4 7 8
6
1 2 5 7 9 10
4
1 2 3 4
3
1 2 7
10
1 3 4 5 6 8 9 10 11 12
4
2 3 6 9
3
1 4 5
2
1 3
2
1 2
3
1 4 6
2
1 2
5
4 5 10 11 12
4
1 2 3 8
17
1 2 3 4 5 6 7 8 9 10 11 12 13 14 15 16 17
7
1 2 3 4 5 7 10
8
2 3 5 6 8 9 12 13
6
1 2 3 4 5 6
8
1 2 4 5 6 8 9 11
4
2 4 6 8
8
1 4 5 7 8 10 12 14
